assets/logs/10_10x10_clingo/10_10x10_clingo.solution.log

-----------------------------------------
|  0| 85| 63| 18| 79| 26| 67| 22|  0|  2|
-----------------------------------------
| 61|  0| 81| 28| 65| 20| 73|  0| 69|  0|
-----------------------------------------
| 83| 41| 68| 77| 16| 86| 24| 38|  4|  0|
-----------------------------------------
|  0| 59| 30| 84| 66| 75| 13| 71|  0|  0|
-----------------------------------------
| 39| 70| 43| 57| 11| 14| 36| 10| 40|  6|
-----------------------------------------
|  0| 55| 82| 32| 29| 64|  9| 15| 54|  0|
-----------------------------------------
| 72| 37| 27| 45| 80| 34| 12| 62|  8| 42|
-----------------------------------------
| 53|  0| 49| 31| 25|  7| 46| 52| 17| 56|
-----------------------------------------
| 35| 74|  3|  0| 47| 78| 60| 21| 44| 50|
-----------------------------------------
|  1| 51| 33| 76|  5| 23|  0| 48| 58| 19|
-----------------------------------------

| n = 10 | k = 10 | coverage = 95, 95.0%
 Time 300.001
 Name 10_10x10_clingo

