assets/logs/10_10x10_clingo/10_10x10_clingo.log
clingo version 5.4.0
Reading from ...s/logs/10_10x10_clingo/knights_tour.lp ...
Solving...
Answer: 1
occ(1,4,1) occ(1,2,2) occ(1,9,4) occ(1,1,9) occ(1,6,10) occ(1,2,10) occ(1,10,7) occ(1,2,8) occ(1,4,10) occ(1,8,2) occ(2,10,1) occ(3,1,10) coverage(6)
Optimization: -6
Answer: 2
occ(1,4,1) occ(1,2,2) occ(1,9,4) occ(1,1,9) occ(1,6,10) occ(1,2,10) occ(1,10,7) occ(1,2,8) occ(1,4,10) occ(1,8,2) occ(2,10,1) occ(3,1,10) coverage(7) occ(4,9,3) occ(6,10,5)
Optimization: -7
Answer: 3
occ(1,4,1) occ(1,2,2) occ(1,9,4) occ(1,1,9) occ(1,6,10) occ(1,2,10) occ(1,10,7) occ(1,2,8) occ(1,4,10) occ(1,8,2) occ(2,10,1) occ(3,1,10) coverage(50) occ(7,1,8) occ(15,1,4) occ(21,1,1) occ(40,1,5) occ(46,1,2) occ(69,1,7) occ(13,2,6) occ(19,2,3) occ(44,2,4) occ(67,2,5) occ(5,3,9) occ(9,3,7) occ(17,3,5) occ(23,3,2) occ(38,3,4) occ(42,3,6) occ(48,3,1) occ(71,3,8) occ(11,4,5) occ(27,4,3) occ(36,4,2) occ(45,4,8) occ(65,4,4) occ(73,4,6) occ(87,4,9) occ(12,5,9) occ(25,5,1) occ(29,5,5) occ(34,5,4) occ(43,5,6) occ(63,5,2) occ(77,5,3) occ(85,5,7) occ(31,6,7) occ(32,6,2) occ(47,6,9) occ(75,6,5) occ(81,6,4) occ(89,6,8) occ(10,7,8) occ(14,7,10) occ(33,7,9) occ(41,7,5) occ(61,7,1) occ(79,7,2) occ(83,7,6) occ(8,8,6) occ(18,8,7) occ(26,8,3) occ(30,8,1) occ(49,8,10) occ(55,8,5) occ(91,8,9) occ(4,9,3) occ(16,9,9) occ(20,9,5) occ(24,9,1) occ(35,9,10) occ(39,9,6) occ(53,9,7) occ(59,9,2) occ(95,9,8) occ(6,10,5) occ(22,10,3) occ(28,10,2) occ(37,10,8) occ(51,10,9) occ(57,10,4) occ(93,10,10)
Optimization: -50
Answer: 4
occ(1,4,1) occ(1,2,2) occ(1,9,4) occ(1,1,9) occ(1,6,10) occ(1,2,10) occ(1,10,7) occ(1,2,8) occ(1,4,10) occ(1,8,2) occ(2,10,1) occ(3,1,10) coverage(71) occ(7,1,8) occ(56,1,3) occ(60,1,7) occ(65,1,1) occ(69,1,5) occ(9,2,6) occ(40,2,4) occ(54,2,1) occ(58,2,5) occ(67,2,3) occ(70,2,7) occ(5,3,9) occ(11,3,4) occ(23,3,6) occ(36,3,7) occ(57,3,3) occ(62,3,8) occ(63,3,2) occ(68,3,5) occ(21,4,8) occ(27,4,9) occ(38,4,5) occ(42,4,3) occ(52,4,2) occ(61,4,4) occ(66,4,7) occ(72,4,6) occ(13,5,5) occ(24,5,3) occ(25,5,7) occ(31,5,10) occ(34,5,6) occ(48,5,1) occ(55,5,4) occ(59,5,2) occ(64,5,9) occ(74,5,8) occ(19,6,9) occ(22,6,5) occ(28,6,2) occ(29,6,8) occ(44,6,4) occ(50,6,3) occ(53,6,6) occ(8,7,3) occ(15,7,6) occ(18,7,8) occ(26,7,4) occ(32,7,5) occ(33,7,9) occ(46,7,2) occ(76,7,7) occ(84,7,1) occ(6,8,1) occ(10,8,5) occ(16,8,10) occ(17,8,8) occ(20,8,6) occ(30,8,3) occ(39,8,9) occ(45,8,4) occ(51,8,7) occ(4,9,3) occ(14,9,8) occ(35,9,10) occ(41,9,7) occ(49,9,5) occ(78,9,6) occ(82,9,2) occ(12,10,6) occ(37,10,8) occ(43,10,5) occ(47,10,3) occ(80,10,4)
Optimization: -71
Answer: 5
occ(1,4,1) occ(1,2,2) occ(1,9,4) occ(1,1,9) occ(1,6,10) occ(1,2,10) occ(1,10,7) occ(1,2,8) occ(1,4,10) occ(1,8,2) occ(2,10,1) occ(3,1,10) coverage(76) occ(7,1,8) occ(56,1,3) occ(59,1,2) occ(60,1,7) occ(65,1,1) occ(71,1,6) occ(9,2,6) occ(54,2,1) occ(58,2,5) occ(61,2,4) occ(67,2,3) occ(70,2,7) occ(5,3,9) occ(11,3,4) occ(30,3,6) occ(57,3,3) occ(62,3,8) occ(63,3,2) occ(66,3,10) occ(69,3,5) occ(73,3,7) occ(15,4,5) occ(26,4,7) occ(32,4,4) occ(51,4,3) occ(52,4,2) occ(68,4,8) occ(72,4,6) occ(75,4,9) occ(13,5,3) occ(17,5,7) occ(22,5,8) occ(28,5,5) occ(55,5,2) occ(64,5,9) occ(74,5,4) occ(16,6,8) occ(19,6,9) occ(24,6,6) occ(34,6,3) occ(42,6,7) occ(46,6,5) occ(49,6,2) occ(50,6,1) occ(53,6,4) occ(6,7,2) occ(14,7,6) occ(20,7,7) occ(36,7,1) occ(37,7,9) occ(40,7,5) occ(47,7,4) occ(48,7,3) occ(8,8,4) occ(18,8,9) occ(21,8,10) occ(25,8,8) occ(31,8,5) occ(38,8,3) occ(43,8,7) occ(44,8,6) occ(4,9,3) occ(12,9,7) occ(27,9,6) occ(35,9,8) occ(39,9,10) occ(45,9,5) occ(10,10,5) occ(23,10,9) occ(29,10,4) occ(33,10,6) occ(41,10,8)
Optimization: -76
Answer: 6
occ(1,4,1) occ(1,2,2) occ(1,9,4) occ(1,1,9) occ(1,6,10) occ(1,2,10) occ(1,10,7) occ(1,2,8) occ(1,4,10) occ(1,8,2) occ(2,10,1) occ(3,1,10) coverage(78) occ(13,1,3) occ(51,1,4) occ(57,1,7) occ(58,1,2) occ(71,1,6) occ(72,1,5) occ(76,1,1) occ(15,2,1) occ(49,2,6) occ(55,2,5) occ(60,2,4) occ(70,2,7) occ(74,2,3) occ(5,3,9) occ(11,3,4) occ(47,3,8) occ(53,3,3) occ(56,3,1) occ(59,3,6) occ(62,3,2) occ(69,3,5) occ(73,3,7) occ(7,4,7) occ(17,4,2) occ(35,4,5) occ(54,4,3) occ(61,4,8) occ(64,4,4) occ(68,4,6) occ(9,5,5) occ(14,5,4) occ(37,5,7) occ(45,5,9) occ(48,5,3) occ(52,5,1) occ(63,5,10) occ(67,5,6) occ(75,5,8) occ(12,6,6) occ(16,6,2) occ(19,6,3) occ(30,6,9) occ(33,6,4) occ(46,6,1) occ(65,6,8) occ(66,6,5) occ(10,7,4) occ(21,7,1) occ(28,7,7) occ(31,7,6) occ(39,7,8) occ(43,7,10) occ(44,7,3) occ(50,7,2) occ(77,7,9) occ(8,8,6) occ(18,8,1) occ(22,8,3) occ(25,8,4) occ(32,8,8) occ(36,8,10) occ(42,8,5) occ(83,8,7) occ(4,9,3) occ(23,9,2) occ(26,9,6) occ(29,9,5) occ(38,9,8) occ(41,9,9) occ(79,9,10) occ(6,10,5) occ(20,10,2) occ(24,10,4) occ(27,10,3) occ(34,10,9) occ(40,10,6) occ(81,10,8)
Optimization: -78
Answer: 7
occ(1,4,1) occ(1,2,2) occ(1,9,4) occ(1,1,9) occ(1,6,10) occ(1,2,10) occ(1,10,7) occ(1,2,8) occ(1,4,10) occ(1,8,2) occ(2,10,1) occ(3,1,10) coverage(80) occ(13,1,3) occ(51,1,4) occ(57,1,7) occ(58,1,2) occ(71,1,6) occ(15,2,1) occ(49,2,6) occ(55,2,5) occ(60,2,4) occ(5,3,9) occ(11,3,4) occ(47,3,8) occ(53,3,3) occ(56,3,1) occ(59,3,6) occ(62,3,2) occ(69,3,5) occ(73,3,7) occ(7,4,7) occ(17,4,2) occ(35,4,5) occ(54,4,3) occ(61,4,8) occ(64,4,4) occ(68,4,6) occ(9,5,5) occ(14,5,4) occ(37,5,7) occ(45,5,9) occ(48,5,3) occ(52,5,1) occ(63,5,10) occ(67,5,6) occ(75,5,8) occ(12,6,6) occ(16,6,2) occ(19,6,3) occ(33,6,4) occ(39,6,9) occ(46,6,1) occ(65,6,8) occ(66,6,5) occ(70,6,7) occ(10,7,4) occ(21,7,1) occ(28,7,7) occ(31,7,6) occ(43,7,10) occ(44,7,3) occ(50,7,2) occ(72,7,5) occ(77,7,9) occ(78,7,8) occ(8,8,6) occ(18,8,1) occ(22,8,3) occ(25,8,4) occ(30,8,9) occ(36,8,10) occ(41,8,8) occ(42,8,5) occ(74,8,7) occ(4,9,3) occ(23,9,2) occ(26,9,6) occ(29,9,5) occ(32,9,7) occ(38,9,8) occ(76,9,9) occ(79,9,10) occ(6,10,5) occ(20,10,2) occ(24,10,4) occ(27,10,3) occ(34,10,9) occ(40,10,6) occ(81,10,8)
Optimization: -80
Answer: 8
occ(1,4,1) occ(1,2,2) occ(1,9,4) occ(1,1,9) occ(1,6,10) occ(1,2,10) occ(1,10,7) occ(1,2,8) occ(1,4,10) occ(1,8,2) occ(2,10,1) occ(3,1,10) coverage(83) occ(13,1,3) occ(51,1,4) occ(57,1,7) occ(58,1,2) occ(81,1,1) occ(15,2,1) occ(49,2,6) occ(55,2,5) occ(60,2,4) occ(79,2,3) occ(5,3,9) occ(11,3,4) occ(37,3,7) occ(47,3,8) occ(53,3,3) occ(56,3,1) occ(59,3,6) occ(62,3,2) occ(77,3,5) occ(82,3,10) occ(7,4,7) occ(17,4,2) occ(35,4,5) occ(54,4,3) occ(61,4,8) occ(64,4,4) occ(68,4,6) occ(9,5,5) occ(14,5,4) occ(39,5,8) occ(45,5,7) occ(48,5,3) occ(52,5,1) occ(63,5,10) occ(75,5,6) occ(80,5,9) occ(12,6,6) occ(16,6,2) occ(19,6,3) occ(33,6,4) occ(43,6,9) occ(46,6,1) occ(66,6,5) occ(70,6,7) occ(73,6,8) occ(10,7,4) occ(21,7,1) occ(31,7,6) occ(38,7,8) occ(41,7,7) occ(44,7,3) occ(50,7,2) occ(65,7,9) occ(72,7,5) occ(78,7,10) occ(8,8,6) occ(18,8,1) occ(22,8,3) occ(25,8,4) occ(32,8,8) occ(36,8,10) occ(42,8,5) occ(71,8,9) occ(74,8,7) occ(4,9,3) occ(23,9,2) occ(26,9,6) occ(29,9,5) occ(30,9,10) occ(40,9,7) occ(67,9,8) occ(76,9,9) occ(6,10,5) occ(20,10,2) occ(24,10,4) occ(27,10,3) occ(28,10,8) occ(34,10,9) occ(69,10,10)
Optimization: -83
Answer: 9
occ(1,4,1) occ(1,2,2) occ(1,9,4) occ(1,1,9) occ(1,6,10) occ(1,2,10) occ(1,10,7) occ(1,2,8) occ(1,4,10) occ(1,8,2) occ(2,10,1) occ(3,1,10) coverage(86) occ(32,1,3) occ(41,1,1) occ(53,1,7) occ(54,1,6) occ(57,1,5) occ(58,1,2) occ(82,1,8) occ(30,2,1) occ(34,2,5) occ(43,2,3) occ(56,2,4) occ(59,2,7) occ(80,2,6) occ(5,3,9) occ(28,3,3) occ(38,3,4) occ(39,3,2) occ(51,3,8) occ(52,3,5) occ(55,3,6) occ(60,3,1) occ(84,3,7) occ(22,4,3) occ(26,4,5) occ(36,4,6) occ(40,4,2) occ(45,4,4) occ(61,4,8) occ(78,4,7) occ(7,5,10) occ(13,5,9) occ(20,5,5) occ(37,5,1) occ(44,5,3) occ(49,5,7) occ(50,5,4) occ(62,5,2) occ(74,5,6) occ(83,5,8) occ(11,6,7) occ(24,6,4) occ(42,6,1) occ(47,6,5) occ(48,6,2) occ(63,6,9) occ(70,6,3) occ(76,6,8) occ(85,6,6) occ(9,7,9) occ(10,7,8) occ(15,7,10) occ(18,7,6) occ(35,7,2) occ(46,7,4) occ(64,7,3) occ(68,7,1) occ(72,7,5) occ(81,7,7) occ(8,8,6) occ(12,8,10) occ(19,8,7) occ(27,8,3) occ(33,8,4) occ(65,8,8) occ(71,8,9) occ(79,8,5) occ(4,9,3) occ(16,9,7) occ(17,9,9) occ(21,9,5) occ(25,9,1) occ(31,9,6) occ(66,9,2) occ(67,9,10) occ(75,9,8) occ(6,10,5) occ(14,10,9) occ(23,10,3) occ(29,10,4) occ(69,10,8) occ(73,10,10) occ(77,10,6)
Optimization: -86
Answer: 10
occ(1,4,1) occ(1,2,2) occ(1,9,4) occ(1,1,9) occ(1,6,10) occ(1,2,10) occ(1,10,7) occ(1,2,8) occ(1,4,10) occ(1,8,2) occ(2,10,1) occ(3,1,10) coverage(87) occ(32,1,3) occ(41,1,1) occ(53,1,7) occ(54,1,6) occ(57,1,5) occ(58,1,2) occ(82,1,8) occ(30,2,1) occ(34,2,5) occ(43,2,3) occ(56,2,4) occ(59,2,7) occ(80,2,6) occ(5,3,9) occ(28,3,3) occ(38,3,4) occ(39,3,2) occ(51,3,8) occ(52,3,5) occ(55,3,6) occ(60,3,1) occ(84,3,7) occ(22,4,3) occ(26,4,5) occ(36,4,6) occ(40,4,2) occ(45,4,4) occ(61,4,8) occ(78,4,7) occ(86,4,9) occ(7,5,10) occ(13,5,9) occ(20,5,5) occ(37,5,1) occ(44,5,3) occ(49,5,7) occ(50,5,4) occ(62,5,2) occ(74,5,6) occ(83,5,8) occ(11,6,7) occ(24,6,4) occ(42,6,1) occ(47,6,5) occ(48,6,2) occ(63,6,9) occ(70,6,3) occ(76,6,8) occ(85,6,6) occ(9,7,9) occ(10,7,8) occ(15,7,10) occ(18,7,6) occ(35,7,2) occ(46,7,4) occ(64,7,3) occ(68,7,1) occ(72,7,5) occ(81,7,7) occ(8,8,6) occ(12,8,10) occ(19,8,7) occ(27,8,3) occ(33,8,4) occ(65,8,8) occ(71,8,9) occ(79,8,5) occ(4,9,3) occ(16,9,7) occ(17,9,9) occ(21,9,5) occ(25,9,1) occ(31,9,6) occ(66,9,2) occ(67,9,10) occ(75,9,8) occ(6,10,5) occ(14,10,9) occ(23,10,3) occ(29,10,4) occ(69,10,8) occ(73,10,10) occ(77,10,6)
Optimization: -87
Answer: 11
occ(1,4,1) occ(1,2,2) occ(1,9,4) occ(1,1,9) occ(1,6,10) occ(1,2,10) occ(1,10,7) occ(1,2,8) occ(1,4,10) occ(1,8,2) occ(2,10,1) occ(3,1,10) coverage(88) occ(19,1,4) occ(23,1,8) occ(27,1,6) occ(64,1,3) occ(68,1,7) occ(80,1,5) occ(86,1,2) occ(21,2,6) occ(29,2,4) occ(62,2,1) occ(66,2,5) occ(70,2,9) occ(74,2,7) occ(82,2,3) occ(5,3,9) occ(17,3,5) occ(25,3,7) occ(39,3,8) occ(42,3,2) occ(69,3,3) occ(78,3,4) occ(84,3,1) occ(87,3,6) occ(14,4,7) occ(31,4,3) occ(60,4,2) occ(67,4,5) occ(72,4,8) occ(76,4,6) occ(85,4,4) occ(7,5,10) occ(11,5,8) occ(12,5,5) occ(15,5,6) occ(37,5,7) occ(40,5,1) occ(41,5,9) occ(44,5,3) occ(58,5,4) occ(71,5,2) occ(10,6,7) occ(16,6,8) occ(30,6,5) occ(33,6,4) occ(55,6,9) occ(56,6,2) occ(65,6,6) occ(83,6,3) occ(9,7,9) occ(13,7,7) occ(28,7,3) occ(35,7,6) occ(38,7,2) occ(43,7,10) occ(46,7,4) occ(63,7,8) occ(73,7,1) occ(81,7,5) occ(8,8,6) occ(18,8,9) occ(26,8,5) occ(32,8,4) occ(47,8,7) occ(50,8,3) occ(53,8,8) occ(54,8,1) occ(57,8,10) occ(4,9,3) occ(22,9,8) occ(36,9,1) occ(45,9,9) occ(48,9,5) occ(51,9,10) occ(61,9,7) occ(75,9,2) occ(79,9,6) occ(6,10,5) occ(20,10,10) occ(24,10,6) occ(34,10,3) occ(49,10,8) occ(52,10,2) occ(59,10,9) occ(77,10,4)
Optimization: -88
*** Info : (clingo): INTERRUPTED by signal!
SATISFIABLE

TIME LIMIT   : 1
Models       : 11+
  Optimum    : unknown
Optimization : -88
Calls        : 1
Time         : 300.000s (Solving: 298.59s 1st Model: 0.00s Unsat: 0.00s)
CPU Time     : 300.001s
